# Solution for model qis_1000_800_309
# Objective value = 302.038663891664
x[0] 0
x[1] 1
x[2] 0
x[3] -5.2173911302411133e-08
x[4] 1
x[5] 0
x[6] 1
x[7] 1
x[8] 1
x[9] -1.0434782549140209e-07
x[10] 0
x[11] 1
x[12] 0
x[13] 0
x[14] 0
x[15] 0
x[16] 0
x[17] 0
x[18] 5.2063421178252366e-08
x[19] 1.0000001042842082e+00
x[20] 1
x[21] 1
x[22] 0
x[23] 3.1294739529360150e-07
x[24] 2.6082525082389546e-07
x[25] 0
x[26] 5.2083828612498017e-08
x[27] 1
x[28] 5.2080033611394590e-08
x[29] 0
x[30] 1
x[31] 1
x[32] 1
x[33] 1
x[34] 1
x[35] 1
x[36] 0
x[37] 0
x[38] -6.4884057590499621e-07
x[39] 1
x[40] 3.1296619434682880e-07
x[41] 0
x[42] 4.1733157100927308e-07
x[43] 9.9999968695652375e-01
x[44] 0
x[45] 9.9999994782608548e-01
x[46] 0
x[47] 0
x[48] -3.0971014193056524e-07
x[49] 5.1974728371181259e-08
x[50] 0
x[51] 1
x[52] 1
x[53] 5.2052729608032026e-08
x[54] 0
x[55] 5.2108495729115222e-08
x[56] 0
x[57] 0
x[58] 1
x[59] 0
x[60] 1
x[61] 0
x[62] 1
x[63] 0
x[64] 3.1297132928201669e-07
x[65] 0
x[66] 1
x[67] 5.17880170175834e-08
x[68] 0
x[69] 0
x[70] 1
x[71] 9.9999995282608556e-01
x[72] 0
x[73] 1
x[74] 9.9999968695652375e-01
x[75] 1
x[76] 0
x[77] 9.9999998761325115e-01
x[78] 0
x[79] 0
x[80] -5.4782608397130034e-07
x[81] 1
x[82] 5.2067723346536612e-08
x[83] 9.9999968695652375e-01
x[84] 0
x[85] 1
x[86] 0
x[87] 0
x[88] 0
x[89] 0
x[90] 0
x[91] 9.9999995115941864e-01
x[92] -2.6086956457899693e-07
x[93] 1.0000001042305793e+00
x[94] 1
x[95] 0
x[96] 1
x[97] 0
x[98] 0
x[99] 1.0000002607926965e+00
x[100] 0
x[101] 0.999999987795139
x[102] 9.9999995115941942e-01
x[103] 0
x[104] 0
x[105] 0
x[106] 1
x[107] 0
x[108] 0
x[109] 1
x[110] 4.1733166439007603e-07
x[111] 9.9999994782608559e-01
x[112] 1
x[113] 1.0000001303802228e+00
x[114] 3.1297451022916935e-07
x[115] 1
x[116] 0
x[117] 1
x[118] 0
x[119] 1
x[120] 0.999999951159419
x[121] 0
x[122] 4.4344034809041690e-07
x[123] 1
x[124] 1
x[125] 0
x[126] -2.0536231764947084e-07
x[127] -9.9448846005835729e-08
x[128] 1.0000002086475013e+00
x[129] 0
x[130] 1
x[131] 0
x[132] 9.9999998260869394e-01
x[133] 0
x[134] 0
x[135] 1
x[136] 1
x[137] 0
x[138] 0
x[139] 1
x[140] 0
x[141] 0
x[142] 9.9999981859070974e-01
x[143] 1.0000005477921081e+00
x[144] 0
x[145] 0
x[146] 0
x[147] 1
x[148] 1
x[149] 0
x[150] 1
x[151] -3.8677160746172186e-07
x[152] 1.0000001042235525e+00
x[153] 1
x[154] 0
x[155] 1
x[156] 1
x[157] 1
x[158] 0
x[159] 0
x[160] 9.9999984347825976e-01
x[161] 0
x[162] 0
x[163] 3.1300415130930052e-07
x[164] 1
x[165] -3.3793103176435876e-07
x[166] -2.4014492572835421e-07
x[167] 1
x[168] 1
x[169] 0
x[170] 0
x[171] 0
x[172] 0
x[173] 1
x[174] 2.51109087089725e-07
x[175] 0
x[176] 0
x[177] 0
x[178] 1
x[179] 0
x[180] -1.0434782549140209e-07
x[181] 1.8133605530397118e-07
x[182] 1
x[183] 1
x[184] 1
x[185] 0
x[186] 0
x[187] 0
x[188] 9.9999995115941864e-01
x[189] 0
x[190] 1.0000002086304085e+00
x[191] 0
x[192] 0
x[193] 9.9999973913043483e-01
x[194] 0
x[195] 0
x[196] 1.7341325934247116e-08
x[197] -8.7971013860621190e-08
x[198] 9.9999963811594272e-01
x[199] 0
x[200] 1
x[201] 0
x[202] 0
x[203] 1
x[204] 1.0000002608313485e+00
x[205] 0
x[206] 9.9999968695652375e-01
x[207] 0
x[208] 0
x[209] 0
x[210] 1.0000003900175849e+00
x[211] 9.9999979130434924e-01
x[212] 1
x[213] 0
x[214] 1
x[215] 0
x[216] 0
x[217] 0
x[218] 1
x[219] 0
x[220] 1
x[221] 0
x[222] 1
x[223] 0
x[224] 0
x[225] 0
x[226] 9.9999994782608381e-01
x[227] 1
x[228] 1
x[229] 1
x[230] 0
x[231] 0
x[232] 1
x[233] 9.9999968695652375e-01
x[234] 1
x[235] 1
x[236] 1.0000002086596271e+00
x[237] 0
x[238] 1
x[239] 0
x[240] 0
x[241] 1
x[242] 0
x[243] 0
x[244] 0.99999958594203
x[245] 1
x[246] 0
x[247] 1
x[248] 9.9999994782608559e-01
x[249] 0
x[250] 1
x[251] 0
x[252] 0
x[253] 0
x[254] 5.2118713662763818e-08
x[255] 0
x[256] 5.2132901731417330e-08
x[257] 0
x[258] 0
x[259] 1
x[260] 0
x[261] 5.2107988090580713e-08
x[262] 1
x[263] 0
x[264] 1
x[265] 1
x[266] 1
x[267] 4.3741830987914430e-07
x[268] 9.9999969028985713e-01
x[269] 1
x[270] -1.0434782549140209e-07
x[271] 0
x[272] 9.9999998260869394e-01
x[273] 1.0000003900320573e+00
x[274] 0
x[275] 1
x[276] 0
x[277] -2.0869565076075958e-07
x[278] 1
x[279] 9.9999984681159437e-01
x[280] 1
x[281] 0
x[282] 1
x[283] 0
x[284] 1
x[285] 0
x[286] 0
x[287] 1
x[288] 1
x[289] 1
x[290] 0
x[291] -2.0869565103620143e-07
x[292] 3.1300683615760671e-07
x[293] 0
x[294] 1
x[295] 1.0000002086501405e+00
x[296] 1
x[297] 1
x[298] 1
x[299] 1
x[300] 1
x[301] 0
x[302] 1
x[303] 0
x[304] 1.0000000651557321e+00
x[305] 0
x[306] 9.9999969028985691e-01
x[307] 1
x[308] 1
x[309] 0
x[310] 1
x[311] 0
x[312] 1
x[313] 2.6080117664297105e-07
x[314] 0
x[315] 5.7144717366698e-07
x[316] 1
x[317] 0
x[318] 0
x[319] 0
x[320] 0
x[321] 0
x[322] 3.1293395627217947e-07
x[323] 0
x[324] 1
x[325] 1
x[326] 1
x[327] 1
x[328] 0
x[329] 1
x[330] 1
x[331] 1.0000005477879899e+00
x[332] 1
x[333] 1
x[334] 5.1912161258820536e-08
x[335] 1.0000003900152923e+00
x[336] 1
x[337] 1
x[338] 3.6513357689505685e-07
x[339] 1
x[340] 0
x[341] 1.0000002085231994e+00
x[342] 3.1289898174260915e-07
x[343] 1
x[344] 1
x[345] 0
x[346] 0
x[347] 5.1686074191133740e-08
x[348] 0
x[349] 1.0000002083505697e+00
x[350] -2.0454611009857305e-07
x[351] 0
x[352] 5.2134365695656641e-08
x[353] 0
x[354] 0
x[355] 1
x[356] 1
x[357] 0
x[358] 0
x[359] 1
x[360] 0
x[361] 1
x[362] 0
x[363] 0
x[364] 0
x[365] 0
x[366] 1
x[367] 0
x[368] 9.9999943348576836e-01
x[369] 0
x[370] 0
x[371] 0
x[372] 1
x[373] 0
x[374] 0
x[375] 0
x[376] 1
x[377] 0
x[378] 0
x[379] 0
x[380] 0
x[381] 1
x[382] 1
x[383] 1.0000000912651263e+00
x[384] 1.0000005477703859e+00
x[385] 1
x[386] 0
x[387] -2.0869565081415682e-07
x[388] 1
x[389] 1
x[390] 0
x[391] 1
x[392] 1
x[393] 1
x[394] 1
x[395] 9.9999958260869681e-01
x[396] 0
x[397] 1
x[398] 1
x[399] 0
x[400] 1
x[401] 1
x[402] 0
x[403] 0
x[404] 3.1292178197980163e-07
x[405] 2.0863662437940560e-07
x[406] 1
x[407] 1
x[408] 0
x[409] 0
x[410] 1
x[411] -5.21739109602174e-08
x[412] 1.0000000520044827e+00
x[413] 3.1299832022937076e-07
x[414] 1
x[415] 0
x[416] 1.0000000521394163e+00
x[417] 0
x[418] 1
x[419] 0
x[420] 1
x[421] 0
x[422] 0
x[423] 0
x[424] 1
x[425] 0
x[426] 9.9999998260869394e-01
x[427] -2.0536231734618493e-07
x[428] 0
x[429] 0
x[430] 0
x[431] 9.9999969195652372e-01
x[432] 0
x[433] 1
x[434] 1
x[435] 0
x[436] 1.0000000521179497e+00
x[437] 0
x[438] -1.0434782549140209e-07
x[439] 1
x[440] 1.0000002086531874e+00
x[441] -2.6086956454673e-07
x[442] 1
x[443] 0
x[444] 0
x[445] 0
x[446] 1
x[447] 1
x[448] 0
x[449] 0
x[450] 0
x[451] -2.0869565098280418e-07
x[452] 1
x[453] -4.1739130129947455e-07
x[454] 0
x[455] 1
x[456] 0
x[457] 1
x[458] 1
x[459] 1.0000002086541993e+00
x[460] 1
x[461] 1
x[462] 0
x[463] 0
x[464] 5.2098362495048383e-08
x[465] 1
x[466] 1.0000000912272740e+00
x[467] 0
x[468] -2.4866470349493852e-07
x[469] 0
x[470] 1
x[471] 0
x[472] 5.2139323611278295e-08
x[473] 0
x[474] 0
x[475] 1
x[476] 0
x[477] 0
x[478] 1
x[479] 0
x[480] 1
x[481] 0
x[482] 0
x[483] 0
x[484] 1
x[485] 1
x[486] 0
x[487] 0
x[488] 1
x[489] 0
x[490] -3.1304347625216167e-07
x[491] 0
x[492] 1
x[493] 0
x[494] -5.4782608405190558e-07
x[495] 0
x[496] 0
x[497] -5.4782608397130373e-07
x[498] 0
x[499] 1
x[500] -1.5318840580889340e-07
x[501] 1
x[502] 0
x[503] 0
x[504] -5.4782608339441489e-07
x[505] 1
x[506] 1.0417245192963566e-07
x[507] 1
x[508] 1
x[509] 0
x[510] 1
x[511] 0
x[512] 0
x[513] 0
x[514] 1
x[515] 1
x[516] 0
x[517] 0
x[518] 1
x[519] 0
x[520] 0
x[521] 9.9999973913043483e-01
x[522] 9.9999975489483162e-01
x[523] 0
x[524] 0
x[525] 0
x[526] 9.9999955988905076e-01
x[527] 0
x[528] 1
x[529] 0
x[530] 0
x[531] 0
x[532] 0
x[533] 1
x[534] 1.0000005476644402e+00
x[535] 0
x[536] 1
x[537] 1
x[538] 0
x[539] 0
x[540] 0
x[541] 1
x[542] 1.0000001042966331e+00
x[543] 1.0000001043029918e+00
x[544] 9.9999994782608559e-01
x[545] 0
x[546] 5.21345800454094e-08
x[547] 1
x[548] 9.9999958260869681e-01
x[549] 0
x[550] 1
x[551] 1
x[552] 0
x[553] 1
x[554] 1
x[555] 0
x[556] 0
x[557] 1
x[558] 0
x[559] 0
x[560] 9.9999994782608559e-01
x[561] 0
x[562] 1
x[563] 0
x[564] 9.90656492533856e-08
x[565] 0
x[566] 0
x[567] 1.0000001042732332e+00
x[568] 1
x[569] 1
x[570] 9.9999994782608559e-01
x[571] 1
x[572] 1
x[573] 0
x[574] 1
x[575] 0
x[576] 9.9999994782608548e-01
x[577] 0
x[578] 1
x[579] 0
x[580] 0
x[581] 1
x[582] 1.0000001042860602e+00
x[583] -2.7391304200646696e-07
x[584] 0
x[585] 4.6940129916714867e-07
x[586] 0.99999958594203
x[587] 0
x[588] 1
x[589] 1
x[590] 5.2061939342958072e-08
x[591] 1
x[592] 0
x[593] 1.0000002086440318e+00
x[594] 1
x[595] 1
x[596] -1.0101449213922539e-07
x[597] 0
x[598] 1.0000002084323327e+00
x[599] 1
x[600] 3.1299116319638319e-07
x[601] 0
x[602] 0
x[603] 0
x[604] 0
x[605] 1
x[606] 0
x[607] 1
x[608] -1.0434782549140209e-07
x[609] 1
x[610] 0
x[611] 1
x[612] 1
x[613] 0
x[614] 5.21370907165708e-08
x[615] -2.0869565081415682e-07
x[616] 1.0000001043107734e+00
x[617] 1
x[618] 0
x[619] 1
x[620] -7.5152173499871716e-07
x[621] 0
x[622] 0
x[623] 1
x[624] 0
x[625] 1
x[626] 1
x[627] 1
x[628] 1
x[629] 0
x[630] 0
x[631] 1.0000003898074481e+00
x[632] 1
x[633] 1
x[634] 0
x[635] 0
x[636] 0
x[637] 1
x[638] 1.7294295244883294e-08
x[639] 1
x[640] 1
x[641] 0
x[642] -2.0869565076075958e-07
x[643] 1
x[644] 1
x[645] 0
x[646] 1
x[647] 0
x[648] 1
x[649] 1
x[650] 9.9999984681159526e-01
x[651] 9.9999994782608559e-01
x[652] 1
x[653] 1
x[654] 0
x[655] 0
x[656] 1
x[657] 1
x[658] 3.1300737451835428e-07
x[659] 1
x[660] 1
x[661] 1
x[662] 9.9999999999999978e-01
x[663] 0
x[664] 1
x[665] 0
x[666] 0
x[667] 9.9999994782608559e-01
x[668] 1
x[669] 1
x[670] 0
x[671] 4.1730990503985544e-07
x[672] 1
x[673] 1
x[674] 9.9999999999999989e-01
x[675] 1
x[676] 1
x[677] 0
x[678] 1
x[679] 5.2139416933515032e-08
x[680] 1
x[681] -3.9010494079505520e-07
x[682] -1.0101449208420502e-07
x[683] 0
x[684] 1
x[685] 0
x[686] 1
x[687] 1
x[688] 1
x[689] 0
x[690] 1
x[691] 1
x[692] 1
x[693] 1
x[694] 0
x[695] 0
x[696] 0
x[697] 5.4771220318100170e-07
x[698] 1.0000002086469384e+00
x[699] 0
x[700] 1
x[701] 0
x[702] 9.9999994782608548e-01
x[703] 1.0000001042606008e+00
x[704] 0
x[705] 0
x[706] 0
x[707] 0
x[708] 1
x[709] 1
x[710] 9.9999968695652375e-01
x[711] 1
x[712] 0
x[713] 0
x[714] 0
x[715] 0
x[716] 1
x[717] 1
x[718] 1
x[719] 5.2137144238272722e-08
x[720] 1
x[721] 1
x[722] -1.0434782549140209e-07
x[723] 1
x[724] 1
x[725] 0
x[726] 0
x[727] 1.00000033777015
x[728] 1.0000002086544415e+00
x[729] 1
x[730] 9.9999969199316385e-01
x[731] 1.5642004774221186e-07
x[732] 0
x[733] 1
x[734] 0
x[735] 0
x[736] 0
x[737] 1
x[738] 1
x[739] 0
x[740] 1.0000002086598081e+00
x[741] 1
x[742] 1
x[743] 0
x[744] 1
x[745] 1
x[746] 1
x[747] 1
x[748] 0
x[749] 2.6081743124542036e-07
x[750] -2.08695651648938e-07
x[751] -2.0531680703063115e-07
x[752] 0
x[753] 0
x[754] 1
x[755] 0
x[756] 1
x[757] 1
x[758] 1.0000002086384223e+00
x[759] 0
x[760] 9.9999999999999911e-01
x[761] 1
x[762] 0
x[763] 1.5644022293242613e-07
x[764] 0
x[765] 1
x[766] 1
x[767] 9.9999958513346232e-01
x[768] 0
x[769] 1
x[770] 1
x[771] 0
x[772] 1
x[773] 0
x[774] 0
x[775] 0
x[776] -1.0434782549140209e-07
x[777] 0
x[778] 0
x[779] 0
x[780] 1
x[781] 1
x[782] 1
x[783] 0
x[784] 1
x[785] 1
x[786] 1.0000002086611477e+00
x[787] 1
x[788] -1.0434782549140209e-07
x[789] 0
x[790] 0
x[791] -2.0869565098280418e-07
x[792] 0
x[793] 0
x[794] 1
x[795] 3.1284469692970583e-07
x[796] 1
x[797] 1
x[798] 1
x[799] 0
x[800] 0.999999900838575
x[801] 1
x[802] 0
x[803] 5.20616323480652e-08
x[804] 0
x[805] 1
x[806] 1
x[807] 1
x[808] 0
x[809] 0
x[810] 1
x[811] 1
x[812] 1
x[813] 0
x[814] 1
x[815] -2.0536231828678963e-07
x[816] 0
x[817] 1.2070791123420680e-08
x[818] 0
x[819] 1
x[820] 0
x[821] 0
x[822] 1
x[823] 1
x[824] 1
x[825] 2.6078231236407197e-07
x[826] 1
x[827] 1
x[828] 0
x[829] 9.9999994782608559e-01
x[830] 1
x[831] 1
x[832] -1.0434782549140209e-07
x[833] 4.1721883237056360e-07
x[834] 1
x[835] 9.9999974402941438e-01
x[836] 1
x[837] 6.9338471951009189e-08
x[838] 9.9999998594202788e-01
x[839] 9.9999994782608559e-01
x[840] 1
x[841] 0
x[842] 0
x[843] 0
x[844] 0
x[845] 1
x[846] 1
x[847] 0
x[848] 1
x[849] 0
x[850] 1.5647671990444052e-07
x[851] 1
x[852] 1
x[853] 9.9999969028985713e-01
x[854] 0
x[855] 1
x[856] 1
x[857] 1.0000001043092641e+00
x[858] 0
x[859] 1
x[860] 0
x[861] 0
x[862] 2.6081083267862757e-07
x[863] 1
x[864] 0
x[865] 0
x[866] 0
x[867] 0
x[868] 0
x[869] 0
x[870] 0
x[871] 1
x[872] -5.2173909192987367e-08
x[873] 0
x[874] 1
x[875] 0
x[876] 0
x[877] 1
x[878] 1
x[879] 0
x[880] 9.9999999999999989e-01
x[881] 5.2120372734592817e-08
x[882] 1
x[883] 1
x[884] 1
x[885] -5.4449275071857225e-07
x[886] 1.0000002086603248e+00
x[887] 1.0000001042192559e+00
x[888] 1.0000001042747666e+00
x[889] 1
x[890] 1.0000001043127487e+00
x[891] 9.9999974246376822e-01
x[892] 0
x[893] 1
x[894] 0
x[895] 1
x[896] 0
x[897] 0
x[898] 1
x[899] 1
x[900] -1.8140928981225102e-07
x[901] 0
x[902] 5.2105669940024983e-08
x[903] 1
x[904] 0
x[905] 1
x[906] 1
x[907] 0
x[908] 1
x[909] 1
x[910] 1
x[911] 1
x[912] 1
x[913] 1
x[914] 1
x[915] 1
x[916] 1
x[917] -3.9010494096528458e-07
x[918] -2.0531985403412835e-07
x[919] 3.1296738385491105e-07
x[920] 0
x[921] 0
x[922] 1
x[923] 0
x[924] 9.9999958594203164e-01
x[925] 1
x[926] 0
x[927] 1.0000002085503203e+00
x[928] -1.3043478230834182e-07
x[929] 1
x[930] 1
x[931] 1
x[932] 0
x[933] 0
x[934] 1
x[935] 9.9999999999999978e-01
x[936] 0
x[937] 9.9999968695652375e-01
x[938] 1
x[939] 3.1163463056337814e-07
x[940] 1
x[941] 1
x[942] 0
x[943] 1
x[944] 0
x[945] 0
x[946] 0
x[947] 0
x[948] -5.4282608405190563e-07
x[949] 1.0000001564797723e+00
x[950] 0
x[951] 0
x[952] 0
x[953] 0
x[954] 0
x[955] 0
x[956] 1
x[957] 1.0000002086155586e+00
x[958] 1
x[959] 1
x[960] 0
x[961] 1
x[962] 1
x[963] 1
x[964] 9.9999995119400986e-01
x[965] 0
x[966] 0
x[967] 0
x[968] 0
x[969] 1
x[970] 1
x[971] 1
x[972] 0
x[973] 1
x[974] 0
x[975] 1
x[976] 1
x[977] 1
x[978] 1
x[979] 0
x[980] 0
x[981] 1
x[982] 1
x[983] 0
x[984] 0
x[985] 1
x[986] 1
x[987] 1
x[988] 1
x[989] 1
x[990] 0
x[991] 0
x[992] 1
x[993] 0
x[994] 1
x[995] 1
x[996] 9.9999995119896767e-01
x[997] 0
x[998] 1
x[999] 1
